c A SAT instance generated from a 3-CNF formula that had 91 clauses and 20 variables
p cnf 11 10
-2 5 3 1 4 -9 8 7 0
2 5 -3 6 7 8 -7 0
2 -3 6 5 4 2 -8 0
3 -6 5 2 1 -7 0
-9 6 3 -2 10 0
2 5 7 -3 5 0
1 -6 5 1 0
2 4 9 0
11 2 0
-2 0